;; Mutation-Based Equivalence Benchmark
;; Source:     AutomatArk / instance06134.smt2
;; Mutations:  range_expand_hi, union_to_inter, literal_char_inc
;; Status:     sat
;;
;; Original regex vs mutated regex
;; Equivalence check: unsat ⟺ L(R1) = L(R2)

(set-info :smt-lib-version 2.6)
(set-info :category "mutation")
(set-info :status sat)
(set-logic QF_S)

(declare-const x String)

;; R1: original
;; R2: mutated (range_expand_hi, union_to_inter, literal_char_inc)
(assert
  (str.in_re x
    (re.union (re.inter (re.++ (re.union (re.range "a" "z") (re.range "A" "Z")) (re.+ (re.union (re.range "a" "z") (re.range "A" "Z") (re.range "0" "9") (str.to_re "_") (str.to_re ".") (str.to_re "-"))) (str.to_re "@") (re.+ (re.++ (str.to_re ".") ((_ re.loop 2 2) (re.union (re.range "a" "z") (re.range "A" "Z") (re.range "0" "9") (str.to_re "-"))) (re.* (re.union (re.range "a" "z") (re.range "A" "Z") (re.range "0" "9") (str.to_re "-"))))) (re.union ((_ re.loop 2 4) (re.union (re.range "a" "z") (re.range "A" "Z"))) (re.++ ((_ re.loop 2 2) (re.union (re.range "a" "z") (re.range "A" "Z"))) (str.to_re ".") ((_ re.loop 2 2) (re.union (re.range "a" "z") (re.range "A" "Z"))))) (str.to_re "\u{a}")) (re.comp (re.++ (re.union (re.range "a" "z") (re.range "A" "Z")) (re.+ (re.union (re.range "a" "z") (re.range "A" "Z") (re.range "0" "9") (str.to_re "_") (str.to_re ".") (str.to_re "."))) (str.to_re "@") (re.+ (re.++ (str.to_re ".") ((_ re.loop 2 2) (re.union (re.range "a" "z") (re.range "A" "Z") (re.range "0" "9") (str.to_re "-"))) (re.* (re.inter(re.range "a" "z") (re.range "A" "Z") (re.range "0" "9") (str.to_re "-"))))) (re.union ((_ re.loop 2 4) (re.union (re.range "a" "z") (re.range "A" "Z"))) (re.++ ((_ re.loop 2 2) (re.union (re.range "a" "z") (re.range "A" "["))) (str.to_re ".") ((_ re.loop 2 2) (re.union (re.range "a" "z") (re.range "A" "Z"))))) (str.to_re "\u{a}")))) (re.inter (re.comp (re.++ (re.union (re.range "a" "z") (re.range "A" "Z")) (re.+ (re.union (re.range "a" "z") (re.range "A" "Z") (re.range "0" "9") (str.to_re "_") (str.to_re ".") (str.to_re "-"))) (str.to_re "@") (re.+ (re.++ (str.to_re ".") ((_ re.loop 2 2) (re.union (re.range "a" "z") (re.range "A" "Z") (re.range "0" "9") (str.to_re "-"))) (re.* (re.union (re.range "a" "z") (re.range "A" "Z") (re.range "0" "9") (str.to_re "-"))))) (re.union ((_ re.loop 2 4) (re.union (re.range "a" "z") (re.range "A" "Z"))) (re.++ ((_ re.loop 2 2) (re.union (re.range "a" "z") (re.range "A" "Z"))) (str.to_re ".") ((_ re.loop 2 2) (re.union (re.range "a" "z") (re.range "A" "Z"))))) (str.to_re "\u{a}"))) (re.++ (re.union (re.range "a" "z") (re.range "A" "Z")) (re.+ (re.union (re.range "a" "z") (re.range "A" "Z") (re.range "0" "9") (str.to_re "_") (str.to_re ".") (str.to_re "."))) (str.to_re "@") (re.+ (re.++ (str.to_re ".") ((_ re.loop 2 2) (re.union (re.range "a" "z") (re.range "A" "Z") (re.range "0" "9") (str.to_re "-"))) (re.* (re.inter(re.range "a" "z") (re.range "A" "Z") (re.range "0" "9") (str.to_re "-"))))) (re.union ((_ re.loop 2 4) (re.union (re.range "a" "z") (re.range "A" "Z"))) (re.++ ((_ re.loop 2 2) (re.union (re.range "a" "z") (re.range "A" "["))) (str.to_re ".") ((_ re.loop 2 2) (re.union (re.range "a" "z") (re.range "A" "Z"))))) (str.to_re "\u{a}"))))))

(check-sat)
(exit)
